Route #1: 29 51 5 8 27 10 44
Route #2: 47 37 35 33 7 43 2
Route #3: 48 38 34 32 19 15 13 46 16 9
Route #4: 22 26 49 17 50 12 23 45 4
Route #5: 21 14 39 11 28 24 31 3
Route #6: 42 20 18 30 1 36 41
Route #7: 25 6 40
Cost 762